SOLVERNAME,STD
BENCHNAME,/nfs/scratch/bzchartu/unsat_2018_solved/udiv35prop.cnf
running lrb Bench '/nfs/scratch/bzchartu/unsat_2018_solved/udiv35prop.cnf' on cumu02-08
Command exited with non-zero status 20
	Command being timed: "/nfs/scratch/bzchartu/programs/maplechronobt_proof_analyze/sources/simp/glucose_release -det=lrb /nfs/scratch/bzchartu/unsat_2018_solved/udiv35prop.cnf -cpu-lim=10000 -drup-file=/local_ssd/proof.drat"
	User time (seconds): 1394.90
	System time (seconds): 0.79
	Percent of CPU this job got: 100%
	Elapsed (wall clock) time (h:mm:ss or m:ss): 23:15.69
	Average shared text size (kbytes): 0
	Average unshared data size (kbytes): 0
	Average stack size (kbytes): 0
	Average total size (kbytes): 0
	Maximum resident set size (kbytes): 66556
	Average resident set size (kbytes): 0
	Major (requiring I/O) page faults: 2
	Minor (reclaiming a frame) page faults: 258002
	Voluntary context switches: 92
	Involuntary context switches: 1027
	Swaps: 0
	File system inputs: 37120
	File system outputs: 2534360
	Socket messages sent: 0
	Socket messages received: 0
	Signals delivered: 0
	Page size (bytes): 4096
	Exit status: 20
SOLVE_W_TIME,	Elapsed (wall clock) time (h:mm:ss or m:ss): 23:15.69
c This is MapleLCMDistChronoBT.
c WARNING: for repeatability, setting FPU to use double precision
c Analyzer is deactivated by mode: 1 and dyn: 1
c ============================[ Problem Statistics ]=============================
c |                                                                             |
c |  Number of variables:         10972                                         |
c |  Number of clauses:           32256                                         |
c |  Parse time:                   0.02 s                                       |
c |  Eliminated clauses:           0.28 Mb                                      |
c Reduced to 4425 vars, 19674 cls (grow=0)
c No iterative elimination performed. (vars=4425, c/v ratio=4.4)
c |  Simplification time:          0.06 s                                       |
c |                                                                             |
c running deterministic with LRB
c ============================[ Search Statistics ]==============================
c | Conflicts |          ORIGINAL         |          LEARNT          | Progress |
c |           |    Vars  Clauses Literals |    Limit  Clauses Lit/Cl |          |
c ===============================================================================
c ===============================================================================
c restarts              : 16479
c conflicts             : 10214736       (7323 /sec)
c decisions             : 13625552       (0.00 % random) (9768 /sec)
c propagations          : 2898422859     (2077865 /sec)
c conflict literals     : 325618662      (61.68 % deleted)
c backtracks            : 10214731       (NCB 100% , CB 0%)
c Memory used           : 86.00 MB
c CPU time              : 1394.9 s

s UNSATISFIABLE
DRAT_SIZE: 1267176	/local_ssd/proof.drat
s UNSATISFIABLE
/local_ssd/proof.drat
	Command being timed: "/nfs/scratch/bzchartu/programs/maplechronobt_proof_analyze/drat-trim/drat-trim /nfs/scratch/bzchartu/unsat_2018_solved/udiv35prop.cnf /local_ssd/proof.drat -L /local_ssd/proof.lrat -t 200000"
	User time (seconds): 4824.06
	System time (seconds): 30.11
	Percent of CPU this job got: 99%
	Elapsed (wall clock) time (h:mm:ss or m:ss): 1:20:57
	Average shared text size (kbytes): 0
	Average unshared data size (kbytes): 0
	Average stack size (kbytes): 0
	Average total size (kbytes): 0
	Maximum resident set size (kbytes): 15205132
	Average resident set size (kbytes): 0
	Major (requiring I/O) page faults: 0
	Minor (reclaiming a frame) page faults: 24333294
	Voluntary context switches: 674
	Involuntary context switches: 2189
	Swaps: 0
	File system inputs: 0
	File system outputs: 42232672
	Socket messages sent: 0
	Socket messages received: 0
	Signals delivered: 0
	Page size (bytes): 4096
	Exit status: 0
DRAT_W_TIME,	Elapsed (wall clock) time (h:mm:ss or m:ss): 1:20:57
c turning on binary mode checking
c parsing input formula with 10972 variables and 32257 clauses
c finished parsing, read 1297580555 bytes from proof file
c detected empty clause; start verification via backward checking
c 28309 of 32257 clauses in core                            
c 6613672 of 10466122 lemmas in core using 3202749110 resolution steps
c 0 RAT lemmas in core; 0 redundant literals in core lemmas
s VERIFIED
c verification time: 4857.346 seconds
LRAT_SIZE: 21116336	/local_ssd/proof.lrat
s VERIFIED
/local_ssd/proof.lrat
	Command being timed: "/nfs/scratch/bzchartu/programs/maplechronobt_proof_analyze/drat-trim/lrat-check /nfs/scratch/bzchartu/unsat_2018_solved/udiv35prop.cnf /local_ssd/proof.lrat"
	User time (seconds): 518.11
	System time (seconds): 6.47
	Percent of CPU this job got: 99%
	Elapsed (wall clock) time (h:mm:ss or m:ss): 8:44.69
	Average shared text size (kbytes): 0
	Average unshared data size (kbytes): 0
	Average stack size (kbytes): 0
	Average total size (kbytes): 0
	Maximum resident set size (kbytes): 877848
	Average resident set size (kbytes): 0
	Major (requiring I/O) page faults: 0
	Minor (reclaiming a frame) page faults: 483580
	Voluntary context switches: 29
	Involuntary context switches: 137
	Swaps: 0
	File system inputs: 0
	File system outputs: 8
	Socket messages sent: 0
	Socket messages received: 0
	Signals delivered: 0
	Page size (bytes): 4096
	Exit status: 0
LRAT_W_TIME,	Elapsed (wall clock) time (h:mm:ss or m:ss): 8:44.69
c parsed a formula with 10972 variables and 32257 clauses
c VERIFIED
c Added clauses = 6645929.  Deleted clauses = 6645183.  Max live clauses = 89957
c verification time = 524.54 secs
c VERIFIED
OVERVIEW_HEADER,benchmark,solve mem,solve time,drat kb,drat sec,lrat kb,lrat sec,restarts,decisions,conflicts,propagations
OVERVIEW_CSV,/nfs/scratch/bzchartu/unsat_2018_solved/udiv35prop.cnf,	Elapsed (wall clock) time (h:mm:ss or m:ss): 23:15.69,	Maximum resident set size (kbytes): 66556,1267176	/local_ssd/proof.drat,	Elapsed (wall clock) time (h:mm:ss or m:ss): 1:20:57,21116336	/local_ssd/proof.lrat,	Elapsed (wall clock) time (h:mm:ss or m:ss): 8:44.69,c restarts              : 16479,c decisions             : 13625552       (0.00 % random) (9768 /sec),c conflicts             : 10214736       (7323 /sec),c propagations          : 2898422859     (2077865 /sec)
